\ENCODING=ISO-8859-1
\Problem name: 

Minimize
 obj1: x1 + x2 + x3 + x4
Subject To
 c1:  x1 + x12 + x15 + x18  = 1
 c2:  x2 + x9 + x16 + x19  = 1
 c3:  x3 + x10 + x13 + x20  = 1
 c4:  x4 + x11 + x14 + x17  = 1
 c5:  x5 - x6 + 4 x9 <= 3
 c6:  x5 - x7 + 4 x10 <= 3
 c7:  x5 - x8 + 4 x11 <= 3
 c8:  - x5 + x6 + 4 x12 <= 3
 c9:  x6 - x7 + 4 x13 <= 3
 c10: x6 - x8 + 4 x14 <= 3
 c11: - x5 + x7 + 4 x15 <= 3
 c12: - x6 + x7 + 4 x16 <= 3
 c13: x7 - x8 + 4 x17 <= 3
 c14: - x5 + x8 + 4 x18 <= 3
 c15: - x6 + x8 + 4 x19 <= 3
 c16: - x7 + x8 + 4 x20 <= 3
 c17: - x6 + x7 + 4 x9 <= 3
 c18: - x6 + x8 + 4 x9 <= 3
 c19: x6 - x7 + 4 x10 <= 3
 c20: - x7 + x8 + 4 x10 <= 3
 c21: x6 - x8 + 4 x11 <= 3
 c22: x7 - x8 + 4 x11 <= 3
 c23: - x5 + x7 + 4 x12 <= 3
 c24: - x5 + x8 + 4 x12 <= 3
 c25: x5 - x7 + 4 x13 <= 3
 c26: - x7 + x8 + 4 x13 <= 3
 c27: x5 - x8 + 4 x14 <= 3
 c28: x7 - x8 + 4 x14 <= 3
 c29: - x5 + x6 + 4 x15 <= 3
 c30: - x5 + x8 + 4 x15 <= 3
 c31: x5 - x6 + 4 x16 <= 3
 c32: - x6 + x8 + 4 x16 <= 3
 c33: x5 - x8 + 4 x17 <= 3
 c34: x6 - x8 + 4 x17 <= 3
 c35: - x5 + x6 + 4 x18 <= 3
 c36: - x5 + x7 + 4 x18 <= 3
 c37: x5 - x6 + 4 x19 <= 3
 c38: - x6 + x7 + 4 x19 <= 3
 c39: x5 - x7 + 4 x20 <= 3
 c40: x6 - x7 + 4 x20 <= 3
Bounds
 0 <= x1 <= 1
 0 <= x2 <= 1
 0 <= x3 <= 1
 0 <= x4 <= 1
 0 <= x5 <= 3
 0 <= x6 <= 3
 0 <= x7 <= 3
 0 <= x8 <= 3
 0 <= x9 <= 1
 0 <= x10 <= 1
 0 <= x11 <= 1
 0 <= x12 <= 1
 0 <= x13 <= 1
 0 <= x14 <= 1
 0 <= x15 <= 1
 0 <= x16 <= 1
 0 <= x17 <= 1
 0 <= x18 <= 1
 0 <= x19 <= 1
 0 <= x20 <= 1
Generals
 x1  x2  x3  x4  x5  x6  x7  x8  x9  x10  x11  x12  x13  x14  x15  x16  x17 
 x18  x19  x20 
End
